outputs/case_449.model.txt
transaction_contract_payment_service = False
is_fhc_and_responsible_or_major_shareholder = False
transaction_agent_commission_service = False
is_fhc_responsible_or_major_shareholder_business = False
transaction_related_third_party = True
bank_subsidiary_net_worth = 10000000
board_attendance_ratio = 3/5
transaction_purchase_asset = False
bank_subsidiary_single_related_transaction_amount = 2000000
board_approval_ratio = 7/10
transaction_invest_security = True
transaction_condition_preferential_degree = 1
is_fhc_bank_insurance_securities_subsidiary_or_responsible = False
is_fhc_related_enterprise_and_responsible_or_major_shareholder = False
transaction_sell_asset = False
bank_subsidiary_all_related_transaction_amount = 1500000
fhc_53_compliance = True
fhc_39_3_compliance = True
fhc_55_1_compliance = True
transaction_condition_valid = False
violation_fhc_60_7 = False
fhc_16_5_compliance = True
violation_fhc_60_5 = False
fhc_42_1_compliance = True
violation_fhc_60_2 = False
fhc_16_3_compliance = True
fhc_39_1_2_compliance = True
non_credit_transaction_condition_met = True
violation_fhc_60_4 = False
violation_fhc_60_13 = False
violation_fhc_60_6 = False
violation_fhc_60_10 = False
fhc_45_compliance = True
violation_fhc_60_16 = False
bank_subsidiary_all_related_limit_ok = True
fhc_40_41_compliance = True
related_party_involved = False
violation_fhc_60_9 = False
violation_fhc_60_17 = False
fhc_56_compliance = True
violation_fhc_60_8 = False
violation_fhc_60_14 = False
violation_fhc_45 = False
violation_fhc_60_11 = False
violation_fhc_60_1 = False
violation_fhc_60_19 = False
fhc_16_1_2_9_7_compliance = True
bank_subsidiary_single_related_limit_ok = False
fhc_51_compliance = True
violation_fhc_60_3 = False
violation_fhc_60_15 = False
violation_fhc_60_18 = False
fhc_43_compliance = True
penalty = False
fhc_18_1_compliance = True
violation_fhc_60_12 = False
fhc_46_1_compliance = True
fhc_38_compliance = True
fhc_16_6_compliance = True
fhc_16_10_compliance = True
fhc_6_1_compliance = True